NAME: random32
TYPE: TSP
DIMENSION: 32
EDGE_WEIGHT_TYPE: EXPLICIT
EDGE_WEIGHT_FORMAT: FULL_MATRIX
EDGE_WEIGHT_SECTION
0 118 118 118 118 118 21 118 118 118 28 10 118 118 118 118 118 118 118 17 118 118 18 118 118 118 118 118 118 118 118 118
118 0 23 118 118 118 118 118 118 19 118 118 11 118 118 118 118 118 21 118 118 118 118 28 118 118 118 118 118 118 118 118
118 23 0 118 25 118 118 118 118 118 118 118 118 118 118 118 118 118 7 118 118 118 118 118 118 118 118 118 118 33 118 118
118 118 118 0 118 118 118 118 118 118 118 118 36 118 13 40 118 118 118 118 118 118 118 118 118 23 118 118 118 118 118 118
118 118 25 118 0 118 16 12 118 118 118 32 118 118 118 118 118 118 20 118 14 118 118 118 118 118 118 118 118 37 118 118
118 118 118 118 118 0 118 118 118 118 118 118 118 118 118 20 8 12 118 118 118 118 118 118 118 118 118 118 118 118 18 118
21 118 118 118 16 118 0 118 118 118 118 24 118 118 118 118 118 118 118 12 19 118 118 118 118 118 118 118 13 118 118 118
118 118 118 118 12 118 118 0 118 6 118 118 118 118 118 118 118 118 15 118 19 118 118 16 118 118 118 118 118 118 118 118
118 118 118 118 118 118 118 118 0 118 118 118 118 118 118 118 118 118 118 30 118 118 118 118 27 118 14 33 28 118 118 118
118 19 118 118 118 118 118 6 118 0 118 118 118 118 118 118 118 118 11 118 118 118 118 17 118 118 118 118 118 118 118 118
28 118 118 118 118 118 118 118 118 118 0 118 118 118 118 118 118 118 118 32 118 118 41 118 8 118 118 118 118 118 118 118
10 118 118 118 32 118 24 118 118 118 118 0 118 118 118 118 118 118 118 118 118 118 9 118 118 118 118 118 118 15 118 118
118 11 118 36 118 118 118 118 118 118 118 118 0 118 118 118 118 118 118 118 118 118 118 28 118 27 118 118 118 118 118 118
118 118 118 118 118 118 118 118 118 118 118 118 118 0 10 22 118 118 118 118 118 28 118 24 118 15 118 118 118 118 19 118
118 118 118 13 118 118 118 118 118 118 118 118 118 10 0 30 118 118 118 118 118 118 118 118 118 13 118 118 118 118 118 118
118 118 118 40 118 20 118 118 118 118 118 118 118 22 30 0 118 30 118 118 118 118 118 118 118 118 118 118 118 118 10 118
118 118 118 118 118 8 118 118 118 118 118 118 118 118 118 118 0 14 118 118 118 20 118 118 118 118 118 25 118 118 22 35
118 118 118 118 118 12 118 118 118 118 118 118 118 118 118 30 14 0 118 118 118 118 118 118 118 118 118 118 118 118 118 38
118 21 7 118 20 118 118 15 118 11 118 118 118 118 118 118 118 118 0 118 118 118 118 118 118 118 118 118 118 118 118 118
17 118 118 118 118 118 12 118 30 118 32 118 118 118 118 118 118 118 118 0 118 118 118 118 35 118 118 118 9 118 118 118
118 118 118 118 14 118 19 19 118 118 118 118 118 118 118 118 118 118 118 118 0 20 118 23 118 118 118 21 23 118 118 118
118 118 118 118 118 118 118 118 118 118 118 118 118 28 118 118 20 118 118 118 20 0 118 28 118 118 118 18 118 118 18 118
18 118 118 118 118 118 118 118 118 118 41 9 118 118 118 118 118 118 118 118 118 118 0 118 118 118 118 118 118 9 118 118
118 28 118 118 118 118 118 16 118 17 118 118 28 24 118 118 118 118 118 118 23 28 118 0 118 12 118 118 118 118 118 118
118 118 118 118 118 118 118 118 27 118 8 118 118 118 118 118 118 118 118 35 118 118 118 118 0 118 41 118 118 118 118 118
118 118 118 23 118 118 118 118 118 118 118 118 27 15 13 118 118 118 118 118 118 118 118 12 118 0 118 118 118 118 118 118
118 118 118 118 118 118 118 118 14 118 118 118 118 118 118 118 118 118 118 118 118 118 118 118 41 118 0 33 118 118 118 10
118 118 118 118 118 118 118 118 33 118 118 118 118 118 118 118 25 118 118 118 21 18 118 118 118 118 33 0 18 118 118 32
118 118 118 118 118 118 13 118 28 118 118 118 118 118 118 118 118 118 118 9 23 118 118 118 118 118 118 18 0 118 118 118
118 118 33 118 37 118 118 118 118 118 118 15 118 118 118 118 118 118 118 118 118 118 9 118 118 118 118 118 118 0 118 118
118 118 118 118 118 18 118 118 118 118 118 118 118 19 118 10 22 118 118 118 118 18 118 118 118 118 118 118 118 118 0 118
118 118 118 118 118 118 118 118 118 118 118 118 118 118 118 118 35 38 118 118 118 118 118 118 118 118 10 32 118 118 118 0
EOF
